25 50
1 2 3
1 6 2
2 3 1
2 7 4
3 4 5
3 8 3
4 5 1
4 9 1
5 10 2
6 7 3
6 11 5
7 8 4
7 12 1
8 9 5
8 13 3
9 10 1
9 14 5
10 15 1
11 12 2
11 16 4
12 13 3
12 17 5
13 14 5
13 18 1
14 15 1
14 19 4
15 20 4
16 17 5
16 21 4
17 18 3
17 22 4
18 19 5
18 23 4
19 20 5
19 24 5
20 25 4
21 22 3
22 23 2
23 24 4
24 25 3
1 21 4
2 22 2
3 23 5
4 24 2
5 25 5
1 5 4
6 10 3
11 15 2
16 20 1
21 25 1
